3 
4  47 
5  13 33 43 51 59 
6  07 14 21 28 35 43 53 
7  01 08 16 23 31 38 46 53 
8  01 08 16 23 31 38 46 53 
9  01 08 16 23 31 38 46 53 
10  01 08 16 23 31 38 46 53 
11  01 08 16 23 31 38 46 53 
12  01 08 16 23 31 38 46 53 
13  01 08 16 23 31 38 46 53 
14  01 08 16 23 31 38 46 53 
15  01 08 16 23 31 38 46 53 
16  01 08 16 23 31 38 46 53 
17  01 08 16 23 31 38 46 53 
18  01 08 16 23 31 38 46 53 
19  01 08 16 23 31 38 46 53 
20  01 10 25 40 55 
21  08 23 38 53 
22  08 23 38 53 
23  07 23 
0 
